NAME : LPS-n8-m360
COMMENT : (Lartu-Peter-Santi Plot, instance 2360 out of 39200. 8 customers.)
TYPE : CVRP
DIMENSION : 8
EDGE_WEIGHT_TYPE : EUC_2D
CAPACITY : 95
NODE_COORD_SECTION
 1 73 78
 2 87 39
 3 91 9
 4 34 55
 5 40 69
 6 16 29
 7 20 19
 8 35 32
DEMAND_SECTION
1 0
2 4
3 16
4 14
5 74
6 2
7 31
8 16
DEPOT_SECTION
 1
 -1
EOF
